15
1 0 46
2 0 21
2 1 28
3 0 14
3 1 6
3 2 1
4 0 45
4 1 29
4 2 15
4 3 43
5 0 25
5 1 47
5 2 22
5 3 39
5 4 29
6 0 27
6 1 34
6 2 38
6 3 28
6 4 39
6 5 44
7 0 19
7 1 40
7 2 34
7 3 37
7 4 11
7 5 47
7 6 6
8 0 35
8 1 26
8 2 22
8 3 20
8 4 39
8 5 35
8 6 49
8 7 49
9 0 34
9 1 24
9 2 7
9 3 7
9 4 17
9 5 31
9 6 29
9 7 39
9 8 15
10 0 34
10 1 12
10 2 46
10 3 41
10 4 16
10 5 28
10 6 15
10 7 24
10 8 40
10 9 41
11 0 14
11 1 39
11 2 1
11 3 45
11 4 3
11 5 1
11 6 2
11 7 5
11 8 37
11 9 12
11 10 3
12 0 48
12 1 37
12 2 20
12 3 6
12 4 47
12 5 36
12 6 30
12 7 10
12 8 39
12 9 3
12 10 22
12 11 16
13 0 31
13 1 9
13 2 30
13 3 2
13 4 8
13 5 40
13 6 14
13 7 9
13 8 36
13 9 25
13 10 1
13 11 36
13 12 38
14 0 13
14 1 10
14 2 22
14 3 16
14 4 7
14 5 9
14 6 29
14 7 12
14 8 37
14 9 35
14 10 24
14 11 19
14 12 31
14 13 14
